p cnf 217 25
186 -50 108 0
-211 -35 53 0
1 204 162 0
-29 52 -177 0
-110 -13 184 0
12 42 -217 0
-43 76 74 0
187 36 165 0
-184 110 158 0
-51 -95 -71 0
137 82 -127 0
-5 196 7 0
4 -205 130 0
29 -28 149 0
-201 211 157 0
193 -180 24 0
142 131 -3 0
99 -106 -164 0
-204 72 131 0
-137 -169 83 0
-179 -62 -83 0
57 -45 168 0
52 173 -197 0
40 134 51 0
-85 194 -24 0
